r=5; % radius of tesselated grid (const)
n=90; % how many numbers (const)
t=9; % number of tunnels (variable, adjust second array declaration)

snake = array2d(1..n,1..3,[
 %x,y,z, %n
  0,_,3, %1
  _,_,_, %2
  _,_,_, %3
  _,_,_, %4
  _,_,_, %5
  _,_,_, %6
  _,_,_, %7
  _,_,_, %8
  _,_,_, %9
  -1,2,_, %10
  _,_,_, %11
  _,_,_, %12
  _,_,_, %13
  _,4,0, %14
  _,_,_, %15
  _,_,_, %16
  _,_,_, %17
  _,_,_, %18
  _,_,_, %19
  _,_,_, %20
  _,_,_, %21
  _,_,_, %22
  _,_,_, %23
  _,1,4, %24
  _,0,4, %25
  _,_,_, %26
  _,_,_, %27
  _,_,_, %28
  _,_,_, %29
  _,-3,5, %30
  _,_,_, %31
  _,_,_, %32
  _,_,_, %33
  _,_,_, %34
  _,_,_, %35
  _,_,_, %36
  _,_,_, %37
  _,_,_, %38
  1,_,3, %39
  _,_,_, %40
  _,_,_, %41
  _,_,_, %42
  _,_,_, %43
  _,_,_, %44
  2,_,1, %45
  _,_,_, %46
  _,_,_, %47
  _,_,_, %48
  4,_,0, %49
  _,_,_, %50
  _,_,_, %51
  _,_,_, %52
  _,_,_, %53
  5,-2,_, %54
  _,_,_, %55
  _,_,_, %56
  3,0,_, %57
  _,_,_, %58
  _,_,_, %59
  _,_,_, %60
  _,_,_, %61
  3,1,_, %62
  _,_,_, %63
  _,_,_, %64
  _,_,_, %65
  _,_,_, %66
  _,_,_, %67
  2,3,_, %68
  _,_,_, %69
  _,_,_, %70
  1,3,_, %71
  _,_,_, %72
  1,4,_, %73
  _,_,_, %74
  _,_,_, %75
  _,_,_, %76
  _,_,_, %77
  _,_,_, %78
  _,_,_, %79
  _,_,_, %80
  _,_,_, %81
  _,_,_, %82
  1,1,_, %83
  _,_,_, %84
  _,_,_, %85
  _,_,_, %86
  _,_,_, %87
  _,_,_, %88
  _,_,_, %89
  _,0,2  %90
]);

tunnels = array3d(1..t,1..2,1..3,[
    -2,5,_, %coorinate couple for a tunnel
    -1,5,_,
    
    _,-1,4,
    _,-1,5,
    
    0,-5,_,
    1,-5,_,
    
    _,-4,5,
    _,-5,5,
    
    _,1,1,
    _,0,1,
    
    _,3,1,
    _,4,1,
    
    _,1,0,
    _,2,0,
    
    _,4,-1,
    _,5,-1,
    
    _,4,-2,
    _,3,-2

]);
